9059
1 0 1 1 1 0 1 1 1 1
7 7 7 7 7 7 7 2 2 2 2 2 2 2 2 2 2 2 2 3 3 3 2 3 3 3 3 2 3 3 3 3 3 3 3 3 3 3 3 6 6 8 8 8 8 8 8 8 8 3 3 3 6 6 6 6 6 6 6 6 6 6 4 6 0 6 6 6 6 0 0 0 0 4 7 0 0 0 0 0 0 4 0 4 4 4 4 4 4 4 4 9 4 9 4 9 9 9 9 9
